c DIMACS Generated by FeatureIdeToDimacsExporter
p cnf 27 73
1 0
-1 2 5 10 13 18 23 0
-2 1 0
-1 2 0
-2 3 4 0
-2 3 4 0
-3 2 0
-4 2 0
-5 1 0
-1 5 0
-5 6 7 8 9 0
-5 6 7 8 9 0
-6 -7 0
-6 -8 0
-6 -9 0
-7 -8 0
-7 -9 0
-8 -9 0
-6 5 0
-7 5 0
-8 5 0
-9 5 0
-10 1 0
-1 10 0
-10 11 12 0
-10 11 12 0
-11 -12 0
-11 10 0
-12 10 0
-13 1 0
-1 13 0
-13 14 15 16 17 0
-13 14 15 16 17 0
-14 13 0
-15 13 0
-16 13 0
-17 13 0
-18 1 0
-1 18 0
-18 19 20 21 22 0
-18 19 20 21 22 0
-19 18 0
-20 18 0
-21 18 0
-22 18 0
-23 1 0
-1 23 0
-23 24 25 26 27 0
-23 24 25 26 27 0
-24 23 0
-25 23 0
-26 23 0
-27 23 0
3 4 14 15 16 17 19 20 21 22 24 25 26 27 0
-27 21 0
-27 25 0
-27 26 0
-20 3 0
-25 3 0
-22 3 0
-15 3 0
-14 4 0
-16 4 0
-17 15 0
-21 3 0
-21 20 0
-3 24 19 0
-26 3 0
-26 25 0
-6 11 0
-9 11 0
-7 12 0
-8 12 0
